12 965
520 7 479 7 356 7 157 9 6 11 813 15 652 22
521 7 473 7 324 11
535 8 492 8 398 9 279 10 184 14 58 26 897 50
535 8 492 8 398 9 279 10 184 14 58 26 897 50
525 7 504 7 362 7 209 9 25 11 818 15 619 21
525 7 504 7 362 7 209 9 25 11 818 15 619 21
528 7 504 7 413 7 254 9 80 11 923 15 770 20
528 7 504 7 413 7 254 9 80 11 923 15 770 20
525 7 482 7 362 7 118 9 855 11 676 18
525 7 479 7 356 7 109 9 864 11 699 15 557 22
525 7 504 7 362 7 209 9 25 11 818 15 624 21
525 7 482 7 394 7 212 9 29 11 822 15 623 21
